\* Problem *\
Minimize
OBJ: 5 x11 + 5 x12 + 3 x13 + 7 x14 + 6 x15 + 6 x21 + 4 x22 + x23 + 4 x24
 + 6 x25 + 8 x31 + 6 x32 + 5 x33 + 2 x34 + 4 x35
Subject To
_C1: x11 + x21 + x31 <= 8
_C10: x15 + x25 + x35 >= 16
_C11: x11 + x12 + x13 + x14 + x15 <= 6
_C12: x11 + x12 + x13 + x14 + x15 >= 6
_C13: x21 + x22 + x23 + x24 + x25 <= 9
_C14: x21 + x22 + x23 + x24 + x25 >= 9
_C15: x31 + x32 + x33 + x34 + x35 <= 25
_C16: x31 + x32 + x33 + x34 + x35 >= 25
_C2: x11 + x21 + x31 >= 8
_C3: x12 + x22 + x32 <= 5
_C4: x12 + x22 + x32 >= 5
_C5: x13 + x23 + x33 <= 2
_C6: x13 + x23 + x33 >= 2
_C7: x14 + x24 + x34 <= 9
_C8: x14 + x24 + x34 >= 9
_C9: x15 + x25 + x35 <= 16
End
